NAME : d493.20023.tour
COMMENT : Length = 20023
COMMENT : Found by LKH [Keld Helsgaun] Sat May 25 06:42:37 2013
TYPE : TOUR
DIMENSION : 99
TOUR_SECTION
1
2
5
7
11
12
19
15
14
57
58
65
139
128
87
64
63
20
67
68
80
78
76
77
90
99
101
105
95
93
94
104
111
109
118
124
143
151
165
195
178
214
335
491
493
482
479
475
473
468
467
465
460
414
406
344
331
287
262
228
217
213
184
164
153
144
133
123
120
119
129
145
155
161
176
194
222
255
268
298
334
342
429
26
27
29
30
32
39
35
41
22
266
235
21
44
49
52
3
-1
EOF
